Total weight: 1083.9
Route 1: 0 94 95 92 37 98 85 5 60 18 83 45 47 48 82 7 62 88 31 69 1 50 76 12 26 40 53 89 6 96 99 59 87 57 41 22 75 56 72 74 4 21 73 2 97 93 13 58 80 68 24 29 3 77 28 0 
Route 2: 0 42 52 30 33 9 65 79 54 25 67 55 70 10 8 84 17 61 16 91 100 0 
Route 3: 0 27 39 23 15 43 14 44 38 86 46 36 19 11 64 49 63 90 32 20 51 81 78 34 35 71 66 0 
